p tw 668 741
1 2
2 113
3 14
3 130
4 5
4 9
5 6
6 7
7 8
8 9
8 13
9 10
10 11
11 12
12 631
13 15
14 25
15 16
16 17
17 18
18 19
19 20
20 21
21 22
22 23
23 24
24 26
25 36
25 156
26 27
27 28
28 29
29 30
29 32
30 31
31 26
32 33
33 34
34 35
35 37
36 47
37 38
38 39
39 40
40 41
41 42
42 43
42 44
43 44
43 49
44 45
45 46
46 48
47 58
47 166
48 631
49 50
50 51
50 183
51 52
52 53
53 54
54 55
55 56
56 57
57 59
58 69
59 60
60 61
61 62
62 63
63 64
64 65
65 66
66 67
67 68
68 70
69 80
69 216
70 71
71 72
72 73
73 74
74 75
75 76
76 77
77 78
78 79
79 81
80 91
81 82
82 83
83 84
83 86
84 85
85 86
85 88
86 87
87 631
88 89
89 90
90 92
91 102
91 267
92 93
93 94
94 95
95 96
96 97
97 98
98 99
99 100
100 101
101 103
102 114
103 104
104 105
105 106
106 107
107 108
108 109
109 110
109 137
110 111
111 112
111 122
112 115
113 224
114 125
114 294
115 116
116 117
117 118
118 119
119 120
120 121
121 122
122 123
123 124
124 126
125 136
126 127
127 128
128 129
129 130
130 131
131 132
131 133
132 631
133 134
134 135
135 107
136 147
136 304
137 138
138 139
139 140
140 141
141 142
142 143
143 144
144 145
145 146
146 148
147 158
148 149
149 150
150 151
151 152
152 153
153 154
154 155
155 156
156 157
157 159
157 161
158 169
158 354
159 160
160 161
160 163
161 162
162 631
163 164
164 165
165 166
166 167
167 168
167 171
168 170
169 180
170 171
170 173
171 172
172 631
173 174
174 175
175 176
176 177
177 178
178 179
179 181
180 191
180 406
181 182
182 183
183 184
184 185
184 320
185 186
186 187
187 188
188 189
189 190
190 192
191 202
192 193
193 194
194 195
195 196
196 197
197 198
198 199
199 200
200 201
201 203
202 213
202 441
203 204
204 205
205 206
206 207
207 208
208 209
209 210
210 211
211 212
212 214
213 225
214 215
215 216
216 217
217 218
217 220
218 219
219 220
219 222
220 221
221 631
222 223
223 226
224 335
225 236
225 452
226 227
227 228
228 229
229 230
230 231
231 232
232 233
233 234
234 235
235 237
236 247
237 238
238 239
239 240
240 241
241 242
242 243
243 244
244 245
244 274
245 246
246 248
246 260
247 258
247 501
248 249
249 250
250 251
251 252
252 253
253 254
254 255
255 256
256 257
257 259
258 269
259 260
260 261
261 262
262 263
263 264
264 265
265 266
266 267
267 268
268 270
268 271
269 280
269 553
270 631
271 272
272 273
273 242
274 275
275 276
276 277
277 278
278 279
279 281
280 291
281 282
282 283
283 284
284 285
285 286
286 287
287 288
288 289
289 290
290 292
291 302
291 589
292 293
293 294
294 295
295 296
295 298
296 297
297 298
297 300
298 299
299 631
300 301
301 303
302 313
303 304
304 305
305 306
305 308
306 307
307 308
307 310
308 309
309 631
310 311
311 312
312 314
313 324
313 599
314 315
315 316
316 317
317 318
318 319
319 320
320 321
321 322
321 468
322 323
323 325
324 628
325 326
326 327
327 328
328 329
329 330
330 331
331 332
332 333
333 334
334 337
335 446
336 347
337 338
338 339
339 340
340 341
341 342
342 343
343 344
344 345
345 346
346 348
347 358
348 349
349 350
350 351
351 352
352 353
353 354
354 355
355 356
355 359
356 357
357 359
357 361
358 369
359 360
360 631
361 362
362 363
363 364
364 365
365 366
366 367
367 368
368 370
369 380
370 371
371 372
372 373
373 374
374 375
375 376
376 377
377 378
378 379
379 381
380 391
381 382
382 383
382 421
383 384
384 385
384 397
385 386
386 387
387 388
388 389
389 390
390 392
391 402
392 393
393 394
394 395
395 396
396 397
397 398
398 399
399 400
400 401
401 403
402 413
403 404
404 405
405 406
406 407
407 408
407 416
408 409
409 410
409 418
410 411
411 412
412 414
413 424
414 415
415 416
415 418
416 417
417 631
418 419
419 420
420 379
421 422
422 423
423 425
424 435
425 426
426 427
427 428
428 429
429 430
430 431
431 432
432 433
433 434
434 436
435 447
436 437
437 438
438 439
439 440
440 441
441 442
442 443
442 445
443 444
444 445
444 449
445 448
446 557
447 458
447 656
448 631
449 450
450 451
451 452
452 453
453 454
453 456
454 455
455 456
455 459
456 457
457 631
458 469
459 460
460 461
461 462
462 463
463 464
464 465
465 466
466 467
467 468
468 470
469 480
470 471
470 616
471 472
472 473
473 474
474 475
475 476
476 477
477 478
478 479
479 481
480 491
481 482
482 483
483 484
484 485
485 486
486 487
487 488
488 489
489 490
490 492
491 502
492 493
493 494
494 495
495 496
496 497
497 498
498 499
499 500
500 501
501 503
502 513
502 645
503 504
503 506
504 505
505 506
505 508
506 507
507 631
508 509
509 510
510 511
511 512
512 514
513 524
513 645
514 515
515 516
516 517
517 518
518 519
519 520
520 521
521 522
522 523
523 525
524 535
525 526
526 527
527 528
528 529
529 530
529 570
530 531
531 532
531 544
532 533
533 534
534 536
535 546
535 558
536 537
537 538
538 539
539 540
540 541
541 542
542 543
543 544
544 545
545 547
546 558
547 548
548 549
549 550
550 551
551 552
552 553
553 554
554 555
554 564
555 556
556 559
556 566
557 636
557 336
558 569
559 560
560 561
561 562
562 563
563 564
563 566
564 565
565 631
566 567
567 568
568 527
569 580
570 571
571 572
572 573
573 574
574 575
575 576
576 577
577 578
578 579
579 581
580 591
581 582
582 583
583 584
584 585
585 586
586 587
587 588
588 589
589 590
590 592
590 594
591 602
591 613
592 593
593 594
593 596
594 595
595 631
596 597
597 598
598 599
599 600
600 601
600 604
601 603
602 613
603 604
603 606
604 605
605 631
606 607
607 608
608 609
609 610
610 611
611 612
612 614
613 624
614 615
615 616
616 617
617 618
618 619
619 620
620 621
621 622
622 623
623 625
624 633
625 626
626 627
627 628
628 629
629 630
630 631
631 632
633 634
634 635
634 637
635 637
636 647
637 638
638 639
639 640
640 641
640 642
641 642
642 643
643 644
644 469
645 646
646 648
647 658
647 82
648 649
649 650
650 651
651 652
652 653
652 413
653 654
654 655
655 649
656 657
657 659
658 3
659 660
660 661
661 662
662 663
663 664
664 665
665 666
666 667
667 668
668 4
